11
1 0 4
2 0 13
2 1 26
3 1 7
4 0 2
4 1 14
4 3 10
5 0 11
5 4 26
6 1 5
6 2 7
6 3 1
6 4 16
6 5 1
7 0 2
7 1 9
7 4 19
7 5 7
7 6 1
8 1 15
8 2 22
8 4 3
8 7 23
9 0 8
9 3 24
9 5 18
9 8 20
10 2 28
10 4 9
10 5 3
10 8 11
